Normalized Data/p03_30_normalized_split0.vrp
NAME:p03_30_NORMALIZED_split
BEST_KNOWN: 0
COMMENT: 0
DIMENSION: 385
CAPACITY: 100
EDGE_WEIGHT_FORMAT: FUNCTION
EDGE_WEIGHT_TYPE: EXACT_2D
NODE_COORD_SECTION
1 0.00000 0.00000
2 21 -29
3 21 -29
4 21 -29
5 21 -29
6 21 -29
7 9 34
8 9 34
9 9 34
10 9 34
11 9 34
12 0 44
13 0 44
14 0 44
15 0 44
16 0 44
17 0 44
18 42 -38
19 42 -38
20 42 -38
21 42 -38
22 -17 -39
23 14 16
24 14 16
25 14 16
26 -4 -13
27 -4 -13
28 -4 -13
29 -4 -13
30 -4 -13
31 -4 -13
32 12 18
33 12 18
34 12 18
35 12 18
36 12 18
37 10 -27
38 10 -27
39 10 -27
40 10 -27
41 10 -27
42 10 -27
43 47 0
44 47 0
45 47 0
46 47 0
47 47 0
48 47 0
49 -43 -4
50 -43 -4
51 -43 -4
52 -43 -4
53 -43 -4
54 46 -9
55 46 -9
56 46 -9
57 46 -9
58 46 -9
59 46 -9
60 -26 43
61 -26 43
62 -26 43
63 -26 43
64 -26 43
65 -26 43
66 0 10
67 18 -28
68 18 -28
69 18 -28
70 18 -28
71 18 -28
72 6 48
73 6 48
74 6 48
75 -43 47
76 -43 47
77 37 31
78 37 31
79 37 31
80 37 31
81 37 31
82 37 31
83 37 31
84 -16 -39
85 -16 -39
86 -16 -39
87 -16 -39
88 28 41
89 28 41
90 28 41
91 28 41
92 28 41
93 28 41
94 -9 26
95 -9 26
96 2 -5
97 2 -5
98 2 -5
99 2 -5
100 2 -5
101 2 -5
102 47 1
103 47 1
104 47 1
105 47 1
106 35 -45
107 35 -45
108 35 -45
109 35 -45
110 35 -45
111 35 -45
112 3 -28
113 3 -28
114 45 47
115 45 47
116 45 47
117 45 47
118 43 -1
119 43 -1
120 -25 7
121 -25 7
122 -25 7
123 -25 7
124 3 -33
125 3 -33
126 23 -44
127 23 -44
128 23 -44
129 23 -44
130 7 -25
131 7 -25
132 -37 -6
133 -37 -6
134 -37 -6
135 -21 6
136 -21 6
137 -21 6
138 -21 6
139 -21 6
140 -21 6
141 11 -17
142 11 -17
143 45 -11
144 45 -11
145 45 -11
146 45 -11
147 42 1
148 42 1
149 42 1
150 42 1
151 42 1
152 42 1
153 49 28
154 -25 15
155 -25 15
156 -25 15
157 -25 15
158 -25 15
159 -25 15
160 2 33
161 2 33
162 2 33
163 2 33
164 5 -44
165 5 -44
166 5 -44
167 5 -44
168 49 -35
169 49 -35
170 49 -35
171 49 -35
172 49 -35
173 -24 6
174 -24 6
175 -24 6
176 -24 6
177 -50 14
178 -50 14
179 -50 14
180 -50 14
181 -50 14
182 14 -46
183 14 -46
184 14 -46
185 14 -46
186 14 -46
187 -39 16
188 -39 16
189 -39 16
190 -39 16
191 -39 16
192 39 49
193 39 49
194 13 -37
195 13 -37
196 -25 -50
197 -25 -50
198 -25 -50
199 -25 -50
200 -29 -44
201 -29 -44
202 -29 -44
203 26 1
204 26 1
205 26 1
206 26 1
207 22 33
208 22 33
209 22 33
210 -27 13
211 -27 13
212 -27 13
213 -27 13
214 -27 13
215 -27 13
216 -47 23
217 -47 23
218 38 -34
219 38 -34
220 38 -34
221 38 -34
222 -44 28
223 -44 28
224 -44 28
225 38 16
226 38 16
227 38 16
228 38 16
229 38 16
230 38 16
231 -15 -9
232 -15 -9
233 -15 -9
234 -15 -9
235 -43 -35
236 -43 -35
237 -43 -35
238 -43 -35
239 -43 -35
240 -43 -35
241 2 -22
242 2 -22
243 2 -22
244 -1 1
245 -1 1
246 -1 1
247 -1 1
248 -1 1
249 -27 32
250 14 -50
251 14 -50
252 14 -50
253 14 -50
254 34 2
255 34 2
256 -22 -1
257 -22 -1
258 -22 -1
259 -22 -1
260 -22 -1
261 -22 -1
262 -24 14
263 -24 14
264 -24 14
265 -24 14
266 22 3
267 22 3
268 22 3
269 22 3
270 44 -36
271 44 -36
272 44 -36
273 44 -36
274 44 -36
275 44 -36
276 20 47
277 20 47
278 20 47
279 20 47
280 20 47
281 32 -33
282 32 -33
283 32 -33
284 -15 1
285 -15 1
286 -15 1
287 40 22
288 40 22
289 40 22
290 47 41
291 47 41
292 -22 -19
293 -22 -19
294 29 -45
295 29 -45
296 29 -45
297 29 -45
298 -48 48
299 -48 48
300 -11 8
301 -11 8
302 -19 -43
303 -19 -43
304 -19 -43
305 -19 -43
306 -19 -43
307 -19 -43
308 -19 -43
309 7 -42
310 -18 43
311 -18 43
312 -18 43
313 -8 22
314 -8 22
315 -8 22
316 -8 22
317 1 29
318 1 29
319 1 29
320 1 29
321 24 -4
322 24 -4
323 26 42
324 26 42
325 14 -30
326 14 -30
327 14 -30
328 14 -30
329 14 -30
330 14 -30
331 14 -30
332 41 -41
333 -28 -4
334 -28 -4
335 -28 -4
336 -28 -4
337 -28 -4
338 12 28
339 12 28
340 12 28
341 12 28
342 -32 2
343 -32 2
344 -32 2
345 -32 2
346 -7 -24
347 -7 -24
348 -3 -18
349 -3 -18
350 -3 -18
351 14 46
352 14 46
353 20 -27
354 20 -27
355 20 -27
356 20 -27
357 -28 -38
358 -28 -38
359 -25 0
360 -25 0
361 -25 0
362 -25 0
363 -25 0
364 8 33
365 8 33
366 8 33
367 8 33
368 8 33
369 20 43
370 14 17
371 14 17
372 2 -12
373 2 -12
374 2 -12
375 7 -5
376 7 -5
377 7 -5
378 7 -5
379 7 -5
380 -47 17
381 -47 17
382 -47 17
383 -47 17
384 -47 17
385 -47 17
DEMAND_SECTION
1 0
2 20
3 10
4 5
5 1
6 1
7 10
8 5
9 1
10 1
11 1
12 20
13 10
14 5
15 1
16 1
17 1
18 10
19 1
20 1
21 1
22 20
23 20
24 20
25 10
26 20
27 20
28 1
29 1
30 1
31 1
32 20
33 20
34 5
35 1
36 1
37 20
38 20
39 1
40 1
41 1
42 1
43 20
44 10
45 1
46 1
47 1
48 1
49 10
50 1
51 1
52 1
53 1
54 10
55 5
56 1
57 1
58 1
59 1
60 20
61 20
62 1
63 1
64 1
65 1
66 20
67 20
68 5
69 1
70 1
71 1
72 20
73 10
74 5
75 20
76 1
77 20
78 10
79 5
80 1
81 1
82 1
83 1
84 20
85 10
86 1
87 1
88 10
89 5
90 1
91 1
92 1
93 1
94 20
95 10
96 20
97 20
98 5
99 1
100 1
101 1
102 20
103 20
104 1
105 1
106 20
107 10
108 1
109 1
110 1
111 1
112 20
113 10
114 20
115 5
116 1
117 1
118 20
119 20
120 20
121 5
122 1
123 1
124 20
125 10
126 10
127 1
128 1
129 1
130 20
131 1
132 10
133 1
134 1
135 20
136 10
137 1
138 1
139 1
140 1
141 20
142 1
143 20
144 10
145 1
146 1
147 20
148 10
149 1
150 1
151 1
152 1
153 20
154 20
155 20
156 5
157 1
158 1
159 1
160 20
161 20
162 5
163 1
164 20
165 20
166 5
167 1
168 10
169 1
170 1
171 1
172 1
173 20
174 10
175 5
176 1
177 20
178 20
179 1
180 1
181 1
182 10
183 5
184 1
185 1
186 1
187 20
188 5
189 1
190 1
191 1
192 20
193 20
194 20
195 1
196 10
197 5
198 1
199 1
200 20
201 10
202 1
203 10
204 5
205 1
206 1
207 20
208 20
209 1
210 20
211 10
212 1
213 1
214 1
215 1
216 10
217 5
218 20
219 5
220 1
221 1
222 20
223 20
224 1
225 20
226 10
227 1
228 1
229 1
230 1
231 20
232 10
233 5
234 1
235 20
236 20
237 5
238 1
239 1
240 1
241 20
242 1
243 1
244 20
245 10
246 1
247 1
248 1
249 20
250 20
251 10
252 5
253 1
254 10
255 5
256 10
257 5
258 1
259 1
260 1
261 1
262 20
263 10
264 5
265 1
266 20
267 10
268 1
269 1
270 20
271 10
272 1
273 1
274 1
275 1
276 20
277 1
278 1
279 1
280 1
281 20
282 10
283 1
284 20
285 10
286 1
287 10
288 1
289 1
290 20
291 1
292 20
293 1
294 20
295 10
296 5
297 1
298 20
299 5
300 10
301 5
302 20
303 20
304 5
305 1
306 1
307 1
308 1
309 20
310 10
311 1
312 1
313 10
314 5
315 1
316 1
317 20
318 20
319 5
320 1
321 20
322 10
323 20
324 10
325 20
326 10
327 5
328 1
329 1
330 1
331 1
332 20
333 20
334 1
335 1
336 1
337 1
338 10
339 1
340 1
341 1
342 10
343 5
344 1
345 1
346 20
347 1
348 20
349 10
350 5
351 20
352 20
353 20
354 10
355 5
356 1
357 20
358 5
359 10
360 5
361 1
362 1
363 1
364 20
365 20
366 5
367 1
368 1
369 20
370 20
371 20
372 10
373 5
374 1
375 10
376 1
377 1
378 1
379 1
380 10
381 5
382 1
383 1
384 1
385 1
DEPOT_SECTION
1
-1
EOF