Normalized Data/p03_30_normalized_split0.sol
384 -5 4 1 110 105 108 107 106 109 331 280 282 -6 350 351 279 277 278 276 275 368 340 339 -23 24 22 268 267 266 265 -28 25 26 30 371 372 373 95 96 98 100 -29 27 21 83 85 86 84 346 345 347 349 -32 35 34 33 31 370 369 -41 40 185 184 183 181 251 250 249 252 128 126 125 127 293 295 294 296 -46 42 43 47 44 45 104 103 101 102 146 151 148 -65 93 94 314 315 313 312 243 244 246 245 247 -75 74 297 298 222 221 223 212 210 211 -78 290 289 115 114 116 113 192 191 208 -80 81 79 77 76 82 152 286 287 288 224 225 227 229 228 226 -97 99 325 324 327 36 39 38 37 129 130 -117 118 149 150 147 254 253 203 205 204 202 -137 139 135 134 138 136 122 121 120 119 173 172 174 175 -140 141 68 70 67 66 69 3 2 353 352 355 354 -160 162 72 71 73 11 16 12 15 13 14 318 -170 171 168 169 167 269 274 270 271 272 273 18 17 19 20 219 217 218 220 281 -199 201 200 197 198 196 195 304 305 303 302 306 301 307 -206 207 89 91 88 87 90 92 322 323 338 337 -213 209 214 188 187 190 189 186 49 48 52 50 51 133 131 132 336 335 333 332 334 -216 215 383 381 380 384 382 379 176 180 179 177 178 343 341 344 342 360 362 260 258 -230 232 231 233 255 256 257 259 358 359 361 284 283 285 -241 240 242 111 112 124 123 348 -248 60 64 63 62 61 59 309 311 310 319 316 -264 263 262 261 155 154 157 156 158 153 300 299 -291 292 235 239 236 237 238 234 356 357 -308 163 164 166 165 182 193 194 330 326 328 329 -317 159 161 7 9 10 8 366 363 365 364 367 -321 320 57 54 55 53 58 56 144 145 142 143 374 375 376 378 377 0 





OBJ=
2760.156
BEST_KNOWN=
0.000